8 9
2 8 8 4 7 2 6 3 9 3 3 2 1 6 5 5 9 9 6 8 2 8 9 7 1 3 3 6 7 6 9 3 5 1 7 2 4 3 8 1 4 1 4 6 8 9 4 6 6 7 2 5 2 7 9 4 4 1 1 5 2 5 4 1 7 5 8 5 7 8 3 9 
1 2 3 4 5 6 7 8
1 2 4 5 6 7 8 3
3 4 5 6 7 8 1 2 
5 6 7 8 1 2 3 4
4 5 6 7 1 2 3 8
1 2 3 4 8 7 6 5
1 2 4 3 5 6 8 7
3 4 5 6 7 8 1 2
4 5 3 2 1 6 7 8
5 6 7 8 9 10 3 4
9 3 5 6 7 8 10 4
10 3 9 5 1 5 6 7 
14 5 9 8 3 5 10 7
12 5 6 7 8 9 4 7
5 6 7 8 9 13 4 2 10
5 6 7 8 9 3 4 10
10 12 13 4 5 6 7 8
4 5 6 3 2 10 7 6

